c Created with the Wolfram Language : www.wolfram.com
c 
p edge 80 327
e 5 6
e 4 7
e 1 8
e 2 8
e 2 10
e 9 10
e 3 12
e 1 13
e 5 13
e 1 14
e 2 14
e 3 15
e 8 15
e 11 15
e 6 16
e 11 16
e 12 16
e 14 16
e 1 17
e 2 17
e 13 17
e 10 18
e 13 18
e 14 18
e 6 19
e 11 19
e 13 19
e 16 19
e 18 19
e 2 20
e 13 20
e 10 22
e 22 23
e 2 24
e 8 24
e 7 25
e 18 25
e 21 25
e 10 26
e 15 26
e 24 26
e 1 28
e 16 28
e 25 28
e 27 28
e 9 29
e 15 29
e 25 29
e 3 30
e 12 30
e 17 30
e 27 30
e 17 31
e 20 31
e 1 32
e 29 32
e 31 32
e 5 33
e 6 33
e 11 33
e 13 33
e 19 33
e 27 33
e 1 34
e 2 34
e 23 34
e 25 34
e 27 35
e 5 36
e 35 36
e 1 37
e 6 37
e 16 37
e 21 37
e 26 37
e 27 37
e 4 38
e 6 38
e 10 38
e 23 38
e 26 38
e 35 38
e 18 39
e 27 39
e 28 39
e 29 39
e 1 40
e 28 40
e 3 41
e 11 41
e 18 41
e 23 41
e 37 41
e 38 41
e 1 42
e 7 42
e 16 42
e 4 43
e 10 43
e 28 43
e 36 43
e 37 43
e 10 44
e 22 44
e 23 44
e 37 44
e 43 44
e 12 45
e 21 45
e 32 45
e 42 45
e 44 45
e 2 46
e 5 46
e 11 46
e 13 46
e 31 46
e 6 47
e 8 47
e 10 47
e 43 47
e 7 48
e 9 48
e 15 48
e 16 48
e 20 48
e 5 49
e 7 49
e 11 49
e 26 49
e 1 50
e 7 50
e 11 50
e 21 50
e 30 50
e 7 51
e 43 51
e 8 52
e 13 52
e 14 52
e 32 52
e 42 52
e 44 52
e 48 52
e 50 52
e 24 53
e 33 53
e 35 53
e 49 53
e 6 54
e 30 54
e 44 54
e 4 55
e 1 56
e 2 56
e 5 56
e 15 56
e 26 56
e 28 56
e 35 56
e 10 57
e 13 57
e 19 57
e 34 57
e 11 58
e 15 58
e 24 58
e 28 58
e 30 58
e 32 58
e 35 58
e 36 58
e 45 58
e 53 58
e 57 58
e 10 59
e 12 59
e 14 59
e 24 59
e 28 59
e 33 59
e 41 59
e 43 59
e 48 59
e 55 59
e 28 60
e 40 60
e 42 60
e 55 60
e 57 60
e 14 61
e 50 61
e 9 62
e 24 62
e 29 62
e 12 63
e 15 63
e 16 63
e 20 63
e 27 63
e 34 63
e 2 64
e 13 64
e 18 64
e 19 64
e 24 64
e 31 64
e 55 64
e 8 65
e 21 65
e 57 65
e 6 66
e 12 66
e 31 66
e 32 66
e 45 66
e 57 66
e 7 67
e 12 67
e 13 67
e 20 67
e 29 67
e 52 67
e 55 67
e 25 68
e 30 68
e 41 68
e 44 68
e 67 68
e 11 69
e 23 69
e 28 69
e 59 69
e 67 69
e 68 69
e 3 70
e 7 70
e 11 70
e 21 70
e 23 70
e 33 70
e 49 70
e 56 70
e 68 70
e 7 71
e 9 71
e 10 71
e 34 71
e 40 71
e 42 71
e 54 71
e 61 71
e 35 72
e 36 72
e 38 72
e 53 72
e 54 72
e 58 72
e 65 72
e 7 73
e 17 73
e 41 73
e 44 73
e 52 73
e 61 73
e 65 73
e 72 73
e 7 74
e 13 74
e 15 74
e 26 74
e 29 74
e 31 74
e 35 74
e 45 74
e 55 74
e 67 74
e 70 74
e 6 75
e 8 75
e 25 75
e 29 75
e 38 75
e 10 76
e 12 76
e 17 76
e 19 76
e 26 76
e 30 76
e 59 76
e 5 77
e 26 77
e 32 77
e 33 77
e 39 77
e 55 77
e 61 77
e 62 77
e 64 77
e 72 77
e 18 78
e 25 78
e 35 78
e 41 78
e 53 78
e 57 78
e 58 78
e 61 78
e 70 78
e 75 78
e 6 79
e 12 79
e 37 79
e 49 79
e 60 79
e 69 79
e 4 80
e 8 80
e 9 80
e 12 80
e 21 80
e 26 80
e 35 80
e 52 80
e 55 80
e 57 80
e 77 80
